maximize cost: 105 xc55 + 85 xc5c + 85 xc5d + 105 xc65
 + 85 xc60 + 85 xc61 + 23 xc76 + 23 xc77 + 23 xc7a
 + 23 xc7b + 23 xc7e + 23 xc7f + 23 xc82 + 23 xc83
 + 8 xc90 + 8 xc91 + 8 xc92 + 8 xc93 + 8 xcd7
 + 15 xc94 + 23 xc99 + 23 xc9a + 26 xc9b + 26 xc9c
 + 23 xc9f + 23 xca0 + 23 xca3 + 23 xca4 + 23 xca7
 + 23 xca8 + 8 xcb5 + 8 xcb6 + 8 xcb7 + 8 xcb8
 + 8 xcd2 + 15 xcb9 + 23 xcbe + 23 xcbf + 26 xcc0
 + 26 xcc1 + 23 xcc4 + 23 xcc5 + 8 xcca + 23 xccb
 + 16 xcdd + 95 xce2 + 86 xce3 + 23 xcea + 23 xceb
 + 23 xcee + 23 xcef + 23 xcf2 + 23 xcf3 + 23 xcf6
 + 23 xcf7 + 8 xd04 + 8 xd05 + 8 xd06 + 8 xd07
 + 8 xd4b + 15 xd08 + 23 xd0d + 23 xd0e + 26 xd0f
 + 26 xd10 + 23 xd13 + 23 xd14 + 23 xd17 + 23 xd18
 + 23 xd1b + 23 xd1c + 8 xd29 + 8 xd2a + 8 xd2b
 + 8 xd2c + 8 xd46 + 15 xd2d + 23 xd32 + 23 xd33
 + 26 xd34 + 26 xd35 + 23 xd38 + 23 xd39 + 8 xd3e
 + 23 xd3f + 16 xd51 + 55 xd56 + 86 xd57 + 40 xdec
 + 40 xded + 40 xdee + 23 xd5e + 23 xd5f + 23 xd62
 + 23 xd63 + 23 xd66 + 23 xd67 + 23 xd6a + 23 xd6b
 + 8 xd78 + 8 xd79 + 8 xd7a + 8 xd7b + 8 xdbf
 + 15 xd7c + 23 xd81 + 23 xd82 + 26 xd83 + 26 xd84
 + 23 xd87 + 23 xd88 + 23 xd8b + 23 xd8c + 23 xd8f
 + 23 xd90 + 8 xd9d + 8 xd9e + 8 xd9f + 8 xda0
 + 8 xdba + 15 xda1 + 23 xda6 + 23 xda7 + 26 xda8
 + 26 xda9 + 23 xdac + 23 xdad + 8 xdb2 + 23 xdb3
 + 16 xdc5 + 55 xdca + 86 xdcb + 23 xdd3 + 23 xdd4
 + 23 xdd7 + 23 xdd8 + 32 xddd + 23 xdde + 16 xdf1
 + 16 xdf3 + 16 xdf5 + 55 xdfe + 86 xdff + 40 x1004
 + 40 x1005 + 40 x1006 + 23 xe06 + 23 xe07 + 23 xe0a
 + 23 xe0b + 23 xe0e + 23 xe0f + 23 xe12 + 23 xe13
 + 8 xe20 + 8 xe21 + 8 xe22 + 8 xe23 + 8 xe67
 + 15 xe24 + 23 xe29 + 23 xe2a + 26 xe2b + 26 xe2c
 + 23 xe2f + 23 xe30 + 23 xe33 + 23 xe34 + 23 xe37
 + 23 xe38 + 8 xe45 + 8 xe46 + 8 xe47 + 8 xe48
 + 8 xe62 + 15 xe49 + 23 xe4e + 23 xe4f + 26 xe50
 + 26 xe51 + 23 xe54 + 23 xe55 + 8 xe5a + 23 xe5b
 + 16 xe6d + 55 xe72 + 86 xe73 + 40 xee5 + 40 xee6
 + 40 xee7 + 23 xe7a + 23 xe7b + 23 xe7e + 23 xe7f
 + 23 xe82 + 23 xe83 + 23 xe86 + 23 xe87 + 8 xe94
 + 8 xe95 + 8 xe96 + 8 xe97 + 8 xedb + 15 xe98
 + 23 xe9d + 23 xe9e + 26 xe9f + 26 xea0 + 23 xea3
 + 23 xea4 + 23 xea7 + 23 xea8 + 23 xeab + 23 xeac
 + 8 xeb9 + 8 xeba + 8 xebb + 8 xebc + 8 xed6
 + 15 xebd + 23 xec2 + 23 xec3 + 26 xec4 + 26 xec5
 + 23 xec8 + 23 xec9 + 8 xece + 23 xecf + 16 xee1
 + 16 xeea + 16 xeec + 16 xeee + 55 xef7 + 86 xef8
 + 40 xf92 + 40 xf93 + 40 xf94 + 23 xeff + 23 xf00
 + 23 xf03 + 23 xf04 + 23 xf07 + 23 xf08 + 23 xf0b
 + 23 xf0c + 8 xf19 + 8 xf1a + 8 xf1b + 8 xf1c
 + 8 xf60 + 15 xf1d + 23 xf22 + 23 xf23 + 26 xf24
 + 26 xf25 + 23 xf28 + 23 xf29 + 23 xf2c + 23 xf2d
 + 23 xf30 + 23 xf31 + 8 xf3e + 8 xf3f + 8 xf40
 + 8 xf41 + 8 xf5b + 15 xf42 + 23 xf47 + 23 xf48
 + 26 xf49 + 26 xf4a + 23 xf4d + 23 xf4e + 8 xf53
 + 23 xf54 + 16 xf66 + 55 xf70 + 86 xf71 + 23 xf79
 + 23 xf7a + 23 xf7d + 23 xf7e + 32 xf83 + 23 xf84
 + 40 xf97 + 116 x114c + 40 xfa6 + 40 xfa7 + 40 xfa8
 + 55 xfad + 86 xfae + 40 xfce + 40 xfcf + 40 xfd0
 + 23 xfb5 + 23 xfb6 + 23 xfb9 + 23 xfba + 32 xfbf
 + 23 xfc0 + 55 xfda + 86 xfdb + 40 xffa + 40 xffb
 + 40 xffc + 23 xfe2 + 23 xfe3 + 23 xfe6 + 23 xfe7
 + 32 xfec + 23 xfed + 40 x1007 + 40 x1008 + 40 x1009
 + 40 x100c + 40 x1016 + 40 x1017 + 40 x1018 + 55 x101d
 + 86 x101e + 40 x106e + 40 x106f + 40 x1070 + 23 x1025
 + 23 x1026 + 23 x1029 + 23 x102a + 32 x102f + 23 x1030
 + 55 x1044 + 86 x1045 + 40 x1065 + 40 x1066 + 40 x1067
 + 23 x104c + 23 x104d + 23 x1050 + 23 x1051 + 32 x1056
 + 23 x1057 + 40 x1071 + 40 x1072 + 40 x1073 + 55 x107d
 + 86 x107e + 40 x109e + 40 x109f + 40 x10a0 + 23 x1085
 + 23 x1086 + 23 x1089 + 23 x108a + 32 x108f + 23 x1090
 + 16 x10a9 + 95 x10ae + 86 x10af + 23 x10b6 + 23 x10b7
 + 23 x10ba + 23 x10bb + 23 x10be + 23 x10bf + 23 x10c2
 + 23 x10c3 + 8 x10d0 + 8 x10d1 + 8 x10d2 + 8 x10d3
 + 8 x1117 + 15 x10d4 + 23 x10d9 + 23 x10da + 26 x10db
 + 26 x10dc + 23 x10df + 23 x10e0 + 23 x10e3 + 23 x10e4
 + 23 x10e7 + 23 x10e8 + 8 x10f5 + 8 x10f6 + 8 x10f7
 + 8 x10f8 + 8 x1112 + 15 x10f9 + 23 x10fe + 23 x10ff
 + 26 x1100 + 26 x1101 + 23 x1104 + 23 x1105 + 8 x110a
 + 23 x110b + 16 x111d + 55 x1125 + 86 x1126 + 40 x1145
 + 40 x1146 + 40 x1147 + 23 x112d + 23 x112e + 23 x1131
 + 23 x1132 + 32 x1137 + 23 x1138
subject to
z = 0
o = 1
+1 xc55 = +1
+1 x114c = +1
+1 xc55 -1 xc5c -1 xc5d = +0
+1 xc5d +1 xc61 -1 xc65 +0 xc66 = +0
+1 xc5c -1 xc5f +1 xc60 = +0
+1 xc5f -1 xc60 -1 xc61 = +0
+1 xc65 -1 xc76 -1 xc77 = +0
+1 xc77 -1 xc7a -1 xc7b = +0
+1 xc7a -1 xc7e -1 xc7f = +0
+1 xc7f +1 xc83 -1 xc87 +0 xc88 = +0
+1 xc7e -1 xc81 +1 xc82 = +0
+1 xc81 -1 xc82 -1 xc83 = +0
+1 xc7b -1 xc90 -1 xc91 = +0
+1 xc87 -1 xc92 -1 xc93 = +0
+1 xc90 +1 xc92 -1 xcd7 = +0
+1 xc91 +1 xc93 -1 xc94 = +0
+1 xc76 -1 xc99 -1 xc9a = +0
+1 xc94 -1 xc9b -1 xc9c = +0
+1 xc99 +1 xc9b -1 xcba = +0
+1 xc9a +1 xc9c -1 xc9d = +0
+1 xc9d -1 xc9f -1 xca0 = +0
+1 xc9f -1 xca2 +1 xcc4 = +0
+1 xca2 -1 xca3 -1 xca4 = +0
+1 xca4 +1 xca8 -1 xcac +0 xcad = +0
+1 xca3 -1 xca6 +1 xca7 = +0
+1 xca6 -1 xca7 -1 xca8 = +0
+1 xca0 -1 xcb5 -1 xcb6 = +0
+1 xcac -1 xcb7 -1 xcb8 = +0
+1 xcb5 +1 xcb7 +1 xcca -1 xcd2 +0 xcd3 = +0
+1 xcb6 +1 xcb8 -1 xcb9 = +0
+1 xcba -1 xcbc +1 xcce = +0
+1 xcb9 -1 xcbd +1 xccb = +0
+1 xcbc -1 xcbe -1 xcbf = +0
+1 xcbd -1 xcc0 -1 xcc1 = +0
+1 xcbe +1 xcc0 -1 xcce = +0
+1 xcbf +1 xcc1 -1 xcc2 = +0
+1 xcc2 -1 xcc4 -1 xcc5 = +0
+1 xcc5 -1 xcca -1 xccb = +0
+1 xcd2 +1 xcd7 -1 xcdd = +0
+1 xcdd -1 xce2 -1 xce3 = +0
+1 xce3 -1 xcea -1 xceb = +0
+1 xceb -1 xcee -1 xcef = +0
+1 xcee -1 xcf2 -1 xcf3 = +0
+1 xcf3 +1 xcf7 -1 xcfb +0 xcfc = +0
+1 xcf2 -1 xcf5 +1 xcf6 = +0
+1 xcf5 -1 xcf6 -1 xcf7 = +0
+1 xcef -1 xd04 -1 xd05 = +0
+1 xcfb -1 xd06 -1 xd07 = +0
+1 xd04 +1 xd06 -1 xd4b = +0
+1 xd05 +1 xd07 -1 xd08 = +0
+1 xcea -1 xd0d -1 xd0e = +0
+1 xd08 -1 xd0f -1 xd10 = +0
+1 xd0d +1 xd0f -1 xd2e = +0
+1 xd0e +1 xd10 -1 xd11 = +0
+1 xd11 -1 xd13 -1 xd14 = +0
+1 xd13 -1 xd16 +1 xd38 = +0
+1 xd16 -1 xd17 -1 xd18 = +0
+1 xd18 +1 xd1c -1 xd20 +0 xd21 = +0
+1 xd17 -1 xd1a +1 xd1b = +0
+1 xd1a -1 xd1b -1 xd1c = +0
+1 xd14 -1 xd29 -1 xd2a = +0
+1 xd20 -1 xd2b -1 xd2c = +0
+1 xd29 +1 xd2b +1 xd3e -1 xd46 +0 xd47 = +0
+1 xd2a +1 xd2c -1 xd2d = +0
+1 xd2e -1 xd30 +1 xd42 = +0
+1 xd2d -1 xd31 +1 xd3f = +0
+1 xd30 -1 xd32 -1 xd33 = +0
+1 xd31 -1 xd34 -1 xd35 = +0
+1 xd32 +1 xd34 -1 xd42 = +0
+1 xd33 +1 xd35 -1 xd36 = +0
+1 xd36 -1 xd38 -1 xd39 = +0
+1 xd39 -1 xd3e -1 xd3f = +0
+1 xd46 +1 xd4b -1 xd51 = +0
+1 xd51 -1 xd56 -1 xd57 = +0
+1 xd56 +1 xdca -1 xdec -1 xded -1 xdee = +0
+1 xd57 -1 xd5e -1 xd5f = +0
+1 xd5f -1 xd62 -1 xd63 = +0
+1 x1029 +1 xd62 -1 xd65 +1 xdd7 = +0
+1 xd65 -1 xd66 -1 xd67 = +0
+1 xd67 +1 xd6b -1 xd6f +0 xd70 = +0
+1 xd66 -1 xd69 +1 xd6a = +0
+1 xd69 -1 xd6a -1 xd6b = +0
+1 xd63 -1 xd78 -1 xd79 = +0
+1 xd6f -1 xd7a -1 xd7b = +0
+1 xd78 +1 xd7a -1 xdbf = +0
+1 xd79 +1 xd7b -1 xd7c = +0
+1 x1025 +1 xd5e -1 xd7f +1 xdd3 = +0
+1 x1030 +1 xd7c -1 xd80 +1 xdde = +0
+1 xd7f -1 xd81 -1 xd82 = +0
+1 xd80 -1 xd83 -1 xd84 = +0
+1 xd81 +1 xd83 -1 xda2 = +0
+1 xd82 +1 xd84 -1 xd85 = +0
+1 xd85 -1 xd87 -1 xd88 = +0
+1 xd87 -1 xd8a +1 xdac = +0
+1 xd8a -1 xd8b -1 xd8c = +0
+1 xd8c +1 xd90 -1 xd94 +0 xd95 = +0
+1 xd8b -1 xd8e +1 xd8f = +0
+1 xd8e -1 xd8f -1 xd90 = +0
+1 xd88 -1 xd9d -1 xd9e = +0
+1 xd94 -1 xd9f -1 xda0 = +0
+1 xd9d +1 xd9f +1 xdb2 -1 xdba +0 xdbb = +0
+1 xd9e +1 xda0 -1 xda1 = +0
+1 xda2 -1 xda4 +1 xdb6 = +0
+1 xda1 -1 xda5 +1 xdb3 = +0
+1 xda4 -1 xda6 -1 xda7 = +0
+1 xda5 -1 xda8 -1 xda9 = +0
+1 xda6 +1 xda8 -1 xdb6 = +0
+1 xda7 +1 xda9 -1 xdaa = +0
+1 xdaa -1 xdac -1 xdad = +0
+1 xdad -1 xdb2 -1 xdb3 = +0
+1 xdba +1 xdbf -1 xdc5 = +0
+1 x102f +1 xdc5 -1 xdc9 +1 xddd = +0
+1 xdc9 -1 xdca -1 xdcb = +0
+1 xdcb -1 xdd3 -1 xdd4 = +0
+1 xdd4 -1 xdd7 -1 xdd8 = +0
+1 xdd8 -1 xddd -1 xdde = +0
+1 x1074 +1 xdec -1 xdf1 = +0
+1 x1075 +1 xded -1 xdf3 = +0
+1 x1076 +1 xdee -1 xdf5 = +0
+1 xdf1 -1 xdfe -1 xdff = +0
-1 x1004 -1 x1005 -1 x1006 +1 xdfe = +0
+1 xdff -1 xe06 -1 xe07 = +0
+1 xe07 -1 xe0a -1 xe0b = +0
+1 x1050 +1 x1089 +1 xe0a -1 xe0d = +0
+1 xe0d -1 xe0e -1 xe0f = +0
+1 xe0f +1 xe13 -1 xe17 +0 xe18 = +0
+1 xe0e -1 xe11 +1 xe12 = +0
+1 xe11 -1 xe12 -1 xe13 = +0
+1 xe0b -1 xe20 -1 xe21 = +0
+1 xe17 -1 xe22 -1 xe23 = +0
+1 xe20 +1 xe22 -1 xe67 = +0
+1 xe21 +1 xe23 -1 xe24 = +0
+1 x104c +1 x1085 +1 xe06 -1 xe27 = +0
+1 x1057 +1 x1090 +1 xe24 -1 xe28 = +0
+1 xe27 -1 xe29 -1 xe2a = +0
+1 xe28 -1 xe2b -1 xe2c = +0
+1 xe29 +1 xe2b -1 xe4a = +0
+1 xe2a +1 xe2c -1 xe2d = +0
+1 xe2d -1 xe2f -1 xe30 = +0
+1 xe2f -1 xe32 +1 xe54 = +0
+1 xe32 -1 xe33 -1 xe34 = +0
+1 xe34 +1 xe38 -1 xe3c +0 xe3d = +0
+1 xe33 -1 xe36 +1 xe37 = +0
+1 xe36 -1 xe37 -1 xe38 = +0
+1 xe30 -1 xe45 -1 xe46 = +0
+1 xe3c -1 xe47 -1 xe48 = +0
+1 xe45 +1 xe47 +1 xe5a -1 xe62 +0 xe63 = +0
+1 xe46 +1 xe48 -1 xe49 = +0
+1 xe4a -1 xe4c +1 xe5e = +0
+1 xe49 -1 xe4d +1 xe5b = +0
+1 xe4c -1 xe4e -1 xe4f = +0
+1 xe4d -1 xe50 -1 xe51 = +0
+1 xe4e +1 xe50 -1 xe5e = +0
+1 xe4f +1 xe51 -1 xe52 = +0
+1 xe52 -1 xe54 -1 xe55 = +0
+1 xe55 -1 xe5a -1 xe5b = +0
+1 xe62 +1 xe67 -1 xe6d = +0
+1 x1056 +1 x108f +1 xe6d -1 xe71 = +0
+1 xe71 -1 xe72 -1 xe73 = +0
+1 xe72 -1 xee5 -1 xee6 -1 xee7 = +0
+1 xe73 -1 xe7a -1 xe7b = +0
+1 xe7b -1 xe7e -1 xe7f = +0
+1 x1131 +1 xe7e -1 xe81 +1 xfb9 = +0
+1 xe81 -1 xe82 -1 xe83 = +0
+1 xe83 +1 xe87 -1 xe8b +0 xe8c = +0
+1 xe82 -1 xe85 +1 xe86 = +0
+1 xe85 -1 xe86 -1 xe87 = +0
+1 xe7f -1 xe94 -1 xe95 = +0
+1 xe8b -1 xe96 -1 xe97 = +0
+1 xe94 +1 xe96 -1 xedb = +0
+1 xe95 +1 xe97 -1 xe98 = +0
+1 x112d +1 xe7a -1 xe9b +1 xfb5 = +0
+1 x1138 +1 xe98 -1 xe9c +1 xfc0 = +0
+1 xe9b -1 xe9d -1 xe9e = +0
+1 xe9c -1 xe9f -1 xea0 = +0
+1 xe9d +1 xe9f -1 xebe = +0
+1 xe9e +1 xea0 -1 xea1 = +0
+1 xea1 -1 xea3 -1 xea4 = +0
+1 xea3 -1 xea6 +1 xec8 = +0
+1 xea6 -1 xea7 -1 xea8 = +0
+1 xea8 +1 xeac -1 xeb0 +0 xeb1 = +0
+1 xea7 -1 xeaa +1 xeab = +0
+1 xeaa -1 xeab -1 xeac = +0
+1 xea4 -1 xeb9 -1 xeba = +0
+1 xeb0 -1 xebb -1 xebc = +0
+1 xeb9 +1 xebb +1 xece -1 xed6 +0 xed7 = +0
+1 xeba +1 xebc -1 xebd = +0
+1 xebe -1 xec0 +1 xed2 = +0
+1 xebd -1 xec1 +1 xecf = +0
+1 xec0 -1 xec2 -1 xec3 = +0
+1 xec1 -1 xec4 -1 xec5 = +0
+1 xec2 +1 xec4 -1 xed2 = +0
+1 xec3 +1 xec5 -1 xec6 = +0
+1 xec6 -1 xec8 -1 xec9 = +0
+1 xec9 -1 xece -1 xecf = +0
+1 xed6 +1 xedb -1 xee1 = +0
-1 x101c +1 x1137 +1 xee1 +1 xfbf = +0
+1 x1016 +1 x1145 +1 xee5 -1 xeea +1 xfce = +0
+1 x1017 +1 x1146 +1 xee6 -1 xeec +1 xfcf = +0
+1 x1018 +1 x1147 +1 xee7 -1 xeee +1 xfd0 = +0
+1 xeea -1 xef7 -1 xef8 = +0
+1 xef7 +1 xf70 -1 xf92 -1 xf93 -1 xf94 = +0
+1 xef8 -1 xeff -1 xf00 = +0
+1 xf00 -1 xf03 -1 xf04 = +0
+1 xf03 -1 xf06 +1 xf7d +1 xfe6 = +0
+1 xf06 -1 xf07 -1 xf08 = +0
+1 xf08 +1 xf0c -1 xf10 +0 xf11 = +0
+1 xf07 -1 xf0a +1 xf0b = +0
+1 xf0a -1 xf0b -1 xf0c = +0
+1 xf04 -1 xf19 -1 xf1a = +0
+1 xf10 -1 xf1b -1 xf1c = +0
+1 xf19 +1 xf1b -1 xf60 = +0
+1 xf1a +1 xf1c -1 xf1d = +0
+1 xeff -1 xf20 +1 xf79 +1 xfe2 = +0
+1 xf1d -1 xf21 +1 xf84 +1 xfed = +0
+1 xf20 -1 xf22 -1 xf23 = +0
+1 xf21 -1 xf24 -1 xf25 = +0
+1 xf22 +1 xf24 -1 xf43 = +0
+1 xf23 +1 xf25 -1 xf26 = +0
+1 xf26 -1 xf28 -1 xf29 = +0
+1 xf28 -1 xf2b +1 xf4d = +0
+1 xf2b -1 xf2c -1 xf2d = +0
+1 xf2d +1 xf31 -1 xf35 +0 xf36 = +0
+1 xf2c -1 xf2f +1 xf30 = +0
+1 xf2f -1 xf30 -1 xf31 = +0
+1 xf29 -1 xf3e -1 xf3f = +0
+1 xf35 -1 xf40 -1 xf41 = +0
+1 xf3e +1 xf40 +1 xf53 -1 xf5b +0 xf5c = +0
+1 xf3f +1 xf41 -1 xf42 = +0
+1 xf43 -1 xf45 +1 xf57 = +0
+1 xf42 -1 xf46 +1 xf54 = +0
+1 xf45 -1 xf47 -1 xf48 = +0
+1 xf46 -1 xf49 -1 xf4a = +0
+1 xf47 +1 xf49 -1 xf57 = +0
+1 xf48 +1 xf4a -1 xf4b = +0
+1 xf4b -1 xf4d -1 xf4e = +0
+1 xf4e -1 xf53 -1 xf54 = +0
+1 xf5b +1 xf60 -1 xf66 = +0
+1 xf66 +1 xf83 -1 xfac +1 xfec = +0
+1 xeec -1 xf70 -1 xf71 = +0
+1 xf71 -1 xf79 -1 xf7a = +0
+1 xf7a -1 xf7d -1 xf7e = +0
+1 xf7e -1 xf83 -1 xf84 = +0
+1 xf92 -1 xf97 +1 xfa6 +1 xffa = +0
+1 xf93 -1 xf99 +1 xfa7 +1 xffb = +0
+1 xf94 -1 xf9b +1 xfa8 +1 xffc = +0
+1 x10ae -1 x114c +1 xf97 = +0
+1 xf99 -1 xfa6 -1 xfa7 -1 xfa8 = +0
+1 xfac -1 xfad -1 xfae = +0
+1 xfad -1 xfce -1 xfcf -1 xfd0 = +0
+1 xfae -1 xfb5 -1 xfb6 = +0
+1 xfb6 -1 xfb9 -1 xfba = +0
+1 xfba -1 xfbf -1 xfc0 = +0
+1 xeee -1 xfda -1 xfdb = +0
+1 xfda -1 xffa -1 xffb -1 xffc = +0
+1 xfdb -1 xfe2 -1 xfe3 = +0
+1 xfe3 -1 xfe6 -1 xfe7 = +0
+1 xfe7 -1 xfec -1 xfed = +0
-1 x1007 -1 x1008 -1 x1009 +1 xf9b = +0
+1 x1004 +1 x1007 -1 x100c +1 x1065 +1 x109e = +0
+1 x1005 +1 x1008 -1 x100e +1 x1066 +1 x109f = +0
+1 x1006 +1 x1009 -1 x1010 +1 x1067 +1 x10a0 = +0
+1 x100e -1 x1016 -1 x1017 -1 x1018 = +0
+1 x101c -1 x101d -1 x101e = +0
+1 x101d -1 x106e -1 x106f -1 x1070 = +0
+1 x101e -1 x1025 -1 x1026 = +0
+1 x1026 -1 x1029 -1 x102a = +0
+1 x102a -1 x102f -1 x1030 = +0
-1 x1044 -1 x1045 +1 xdf3 = +0
+1 x1044 -1 x1065 -1 x1066 -1 x1067 = +0
+1 x1045 -1 x104c -1 x104d = +0
+1 x104d -1 x1050 -1 x1051 = +0
+1 x1051 -1 x1056 -1 x1057 = +0
+1 x1010 -1 x1071 -1 x1072 -1 x1073 = +0
+1 x106e +1 x1071 -1 x1074 = +0
+1 x106f +1 x1072 -1 x1075 = +0
+1 x1070 +1 x1073 -1 x1076 = +0
-1 x107d -1 x107e +1 xdf5 = +0
+1 x107d -1 x109e -1 x109f -1 x10a0 = +0
+1 x107e -1 x1085 -1 x1086 = +0
+1 x1086 -1 x1089 -1 x108a = +0
+1 x108a -1 x108f -1 x1090 = +0
+1 x100c -1 x10a9 +1 xce2 = +0
+1 x10a9 -1 x10ae -1 x10af = +0
+1 x10af -1 x10b6 -1 x10b7 = +0
+1 x10b7 -1 x10ba -1 x10bb = +0
+1 x10ba -1 x10be -1 x10bf = +0
+1 x10bf +1 x10c3 -1 x10c7 +0 x10c8 = +0
+1 x10be -1 x10c1 +1 x10c2 = +0
+1 x10c1 -1 x10c2 -1 x10c3 = +0
+1 x10bb -1 x10d0 -1 x10d1 = +0
+1 x10c7 -1 x10d2 -1 x10d3 = +0
+1 x10d0 +1 x10d2 -1 x1117 = +0
+1 x10d1 +1 x10d3 -1 x10d4 = +0
+1 x10b6 -1 x10d9 -1 x10da = +0
+1 x10d4 -1 x10db -1 x10dc = +0
+1 x10d9 +1 x10db -1 x10fa = +0
+1 x10da +1 x10dc -1 x10dd = +0
+1 x10dd -1 x10df -1 x10e0 = +0
+1 x10df -1 x10e2 +1 x1104 = +0
+1 x10e2 -1 x10e3 -1 x10e4 = +0
+1 x10e4 +1 x10e8 -1 x10ec +0 x10ed = +0
+1 x10e3 -1 x10e6 +1 x10e7 = +0
+1 x10e6 -1 x10e7 -1 x10e8 = +0
+1 x10e0 -1 x10f5 -1 x10f6 = +0
+1 x10ec -1 x10f7 -1 x10f8 = +0
+1 x10f5 +1 x10f7 +1 x110a -1 x1112 +0 x1113 = +0
+1 x10f6 +1 x10f8 -1 x10f9 = +0
+1 x10fa -1 x10fc +1 x110e = +0
+1 x10f9 -1 x10fd +1 x110b = +0
+1 x10fc -1 x10fe -1 x10ff = +0
+1 x10fd -1 x1100 -1 x1101 = +0
+1 x10fe +1 x1100 -1 x110e = +0
+1 x10ff +1 x1101 -1 x1102 = +0
+1 x1102 -1 x1104 -1 x1105 = +0
+1 x1105 -1 x110a -1 x110b = +0
+1 x1112 +1 x1117 -1 x111d = +0
+1 x111d -1 x1125 -1 x1126 = +0
+1 x1125 -1 x1145 -1 x1146 -1 x1147 = +0
+1 x1126 -1 x112d -1 x112e = +0
+1 x112e -1 x1131 -1 x1132 = +0
+1 x1132 -1 x1137 -1 x1138 = +0
-1 xc65 +1 xcd2 +1 xcd7 = +0
-1 xce3 +1 xd46 +1 xd4b = +0
-1 x101e +1 x102f -1 xd57 +1 xdba +1 xdbf -1 xdcb +1 xddd = +0
-1 x1045 +1 x1056 -1 x107e +1 x108f -1 xdff +1 xe62 +1 xe67 = +0
-1 x1126 +1 x1137 -1 xe73 +1 xed6 +1 xedb -1 xfae +1 xfbf = +0
-1 xef8 +1 xf5b +1 xf60 -1 xf71 +1 xf83 -1 xfdb +1 xfec = +0
-1 x10af +1 x1112 +1 x1117 = +0
-1 xc65 +1 xcdd = +0
-1 xce3 +1 xd51 = +0
-1 x101e +1 x102f -1 xd57 +1 xdc5 -1 xdcb +1 xddd = +0
-1 x1045 +1 x1056 -1 x107e +1 x108f -1 xdff +1 xe6d = +0
-1 x1126 +1 x1137 -1 xe73 +1 xee1 -1 xfae +1 xfbf = +0
-1 xef8 +1 xf66 -1 xf71 +1 xf83 -1 xfdb +1 xfec = +0
-1 x10af +1 x111d = +0
+1 x10a9 -1 xcdd = +0
-1 xd51 +1 xdf5 = +0
-1 x102f -1 xdc5 -1 xddd +1 xdf3 = +0
-1 x1056 -1 x108f -1 xe6d +1 xeee = +0
-1 x1137 +1 xdf1 -1 xee1 -1 xfbf = +0
+1 xeec -1 xf66 -1 xf83 -1 xfec = +0
-1 x111d +1 xeea = +0
-1 x10a9 +1 x10ae +1 xf97 = +0
+1 x100c -1 xdf5 = +0
+1 x1010 -1 xdf3 = +0
-1 xeee +1 xf9b = +0
+1 x100e -1 xdf1 = +0
-1 xeec +1 xf99 = +0
-1 xeea +1 xf97 = +0
+1 x114c -1 xc65 = +0
-1 x114c <= +0
-1 xc55 +1 xc65 = +0
-1 xc7a +1 xc87 = +0
-1 xc7e -1 xc82 +1 xc88 = +0
-1 xc9f +1 xcac -1 xcc4 = +0
-1 xca3 -1 xca7 +1 xcad = +0
-1 xcee +1 xcfb = +0
-1 xcf2 -1 xcf6 +1 xcfc = +0
-1 xd13 +1 xd20 -1 xd38 = +0
-1 xd17 -1 xd1b +1 xd21 = +0
-1 x1029 -1 xd62 +1 xd6f -1 xdd7 = +0
-1 xd66 -1 xd6a +1 xd70 = +0
-1 xd87 +1 xd94 -1 xdac = +0
-1 xd8b -1 xd8f +1 xd95 = +0
-1 x1050 -1 x1089 -1 xe0a +1 xe17 = +0
-1 xe0e -1 xe12 +1 xe18 = +0
-1 xe2f +1 xe3c -1 xe54 = +0
-1 xe33 -1 xe37 +1 xe3d = +0
-1 x1131 -1 xe7e +1 xe8b -1 xfb9 = +0
-1 xe82 -1 xe86 +1 xe8c = +0
-1 xea3 +1 xeb0 -1 xec8 = +0
-1 xea7 -1 xeab +1 xeb1 = +0
-1 xf03 +1 xf10 -1 xf7d -1 xfe6 = +0
-1 xf07 -1 xf0b +1 xf11 = +0
-1 xf28 +1 xf35 -1 xf4d = +0
-1 xf2c -1 xf30 +1 xf36 = +0
-1 x10ba +1 x10c7 = +0
-1 x10be -1 x10c2 +1 x10c8 = +0
-1 x10df +1 x10ec -1 x1104 = +0
-1 x10e3 -1 x10e7 +1 x10ed = +0
-1 xc77 +1 xc7b +1 xc87 = +0
-1 xc9d +1 xca0 +1 xcac -1 xcc2 +1 xcc5 = +0
-1 xceb +1 xcef +1 xcfb = +0
-1 xd11 +1 xd14 +1 xd20 -1 xd36 +1 xd39 = +0
-1 x1026 +1 x102a -1 xd5f +1 xd63 +1 xd6f -1 xdd4 +1 xdd8 = +0
-1 xd85 +1 xd88 +1 xd94 -1 xdaa +1 xdad = +0
-1 x104d +1 x1051 -1 x1086 +1 x108a -1 xe07 +1 xe0b +1 xe17 = +0
-1 xe2d +1 xe30 +1 xe3c -1 xe52 +1 xe55 = +0
-1 x112e +1 x1132 -1 xe7b +1 xe7f +1 xe8b -1 xfb6 +1 xfba = +0
-1 xea1 +1 xea4 +1 xeb0 -1 xec6 +1 xec9 = +0
-1 xf00 +1 xf04 +1 xf10 -1 xf7a +1 xf7e -1 xfe3 +1 xfe7 = +0
-1 xf26 +1 xf29 +1 xf35 -1 xf4b +1 xf4e = +0
-1 x10b7 +1 x10bb +1 x10c7 = +0
-1 x10dd +1 x10e0 +1 x10ec -1 x1102 +1 x1105 = +0
-1 xc76 -1 xc94 +1 xcd2 = +0
-1 xcb9 -1 xcba -1 xccb -1 xcce +1 xcd3 = +0
-1 xcea -1 xd08 +1 xd46 = +0
-1 xd2d -1 xd2e -1 xd3f -1 xd42 +1 xd47 = +0
-1 x1025 -1 x1030 -1 xd5e -1 xd7c +1 xdba -1 xdd3 -1 xdde = +0
-1 xda1 -1 xda2 -1 xdb3 -1 xdb6 +1 xdbb = +0
-1 x104c -1 x1057 -1 x1085 -1 x1090 -1 xe06 -1 xe24 +1 xe62 = +0
-1 xe49 -1 xe4a -1 xe5b -1 xe5e +1 xe63 = +0
-1 x112d -1 x1138 -1 xe7a -1 xe98 +1 xed6 -1 xfb5 -1 xfc0 = +0
-1 xebd -1 xebe -1 xecf -1 xed2 +1 xed7 = +0
-1 xeff -1 xf1d +1 xf5b -1 xf79 -1 xf84 -1 xfe2 -1 xfed = +0
-1 xf42 -1 xf43 -1 xf54 -1 xf57 +1 xf5c = +0
-1 x10b6 -1 x10d4 +1 x1112 = +0
-1 x10f9 -1 x10fa -1 x110b -1 x110e +1 x1113 = +0
-1 xc55 +1 xc65 = +0
-1 xc5c -1 xc60 +1 xc66 = +0
+1 x102f +1 x1056 +1 x108f +1 x10a9 +1 x111d +1 x1137 -199 xc65 +1 xcdd
+1 xd51 +1 xdc5 +1 xddd +1 xdf1 +1 xdf3 +1 xdf5 +1 xe6d +1 xee1
+1 xeea +1 xeec +1 xeee +1 xf66 +1 xf83 +1 xfbf +1 xfec <= +0
-3 xc77 +1 xc7a +1 xc7e +1 xc82 <= +0
-2 xc7a +1 xc7e +1 xc82 <= +0
-2 xc77 +1 xc7e +1 xc82 <= +0
-3 xc9d +1 xc9f +1 xca3 +1 xca7 -3 xcc2 +1 xcc4 <= +0
-2 xc9f +1 xca3 +1 xca7 -2 xcc4 <= +0
-2 xc9d +1 xca3 +1 xca7 -2 xcc2 <= +0
-3 xceb +1 xcee +1 xcf2 +1 xcf6 <= +0
-2 xcee +1 xcf2 +1 xcf6 <= +0
-2 xceb +1 xcf2 +1 xcf6 <= +0
-3 xd11 +1 xd13 +1 xd17 +1 xd1b -3 xd36 +1 xd38 <= +0
-2 xd13 +1 xd17 +1 xd1b -2 xd38 <= +0
-2 xd11 +1 xd17 +1 xd1b -2 xd36 <= +0
-3 x1026 +1 x1029 -3 xd5f +1 xd62 +1 xd66 +1 xd6a -3 xdd4 +1 xdd7
<= +0
-2 x1029 -2 xd62 +1 xd66 +1 xd6a -2 xdd7 <= +0
-2 x1026 -2 xd5f +1 xd66 +1 xd6a -2 xdd4 <= +0
-3 xd85 +1 xd87 +1 xd8b +1 xd8f -3 xdaa +1 xdac <= +0
-2 xd87 +1 xd8b +1 xd8f -2 xdac <= +0
-2 xd85 +1 xd8b +1 xd8f -2 xdaa <= +0
-3 x104d +1 x1050 -3 x1086 +1 x1089 -3 xe07 +1 xe0a +1 xe0e +1 xe12
<= +0
-2 x1050 -2 x1089 -2 xe0a +1 xe0e +1 xe12 <= +0
-2 x104d -2 x1086 -2 xe07 +1 xe0e +1 xe12 <= +0
-3 xe2d +1 xe2f +1 xe33 +1 xe37 -3 xe52 +1 xe54 <= +0
-2 xe2f +1 xe33 +1 xe37 -2 xe54 <= +0
-2 xe2d +1 xe33 +1 xe37 -2 xe52 <= +0
-3 x112e +1 x1131 -3 xe7b +1 xe7e +1 xe82 +1 xe86 -3 xfb6 +1 xfb9
<= +0
-2 x1131 -2 xe7e +1 xe82 +1 xe86 -2 xfb9 <= +0
-2 x112e -2 xe7b +1 xe82 +1 xe86 -2 xfb6 <= +0
-3 xea1 +1 xea3 +1 xea7 +1 xeab -3 xec6 +1 xec8 <= +0
-2 xea3 +1 xea7 +1 xeab -2 xec8 <= +0
-2 xea1 +1 xea7 +1 xeab -2 xec6 <= +0
-3 xf00 +1 xf03 +1 xf07 +1 xf0b -3 xf7a +1 xf7d -3 xfe3 +1 xfe6
<= +0
-2 xf03 +1 xf07 +1 xf0b -2 xf7d -2 xfe6 <= +0
-2 xf00 +1 xf07 +1 xf0b -2 xf7a -2 xfe3 <= +0
-3 xf26 +1 xf28 +1 xf2c +1 xf30 -3 xf4b +1 xf4d <= +0
-2 xf28 +1 xf2c +1 xf30 -2 xf4d <= +0
-2 xf26 +1 xf2c +1 xf30 -2 xf4b <= +0
-3 x10b7 +1 x10ba +1 x10be +1 x10c2 <= +0
-2 x10ba +1 x10be +1 x10c2 <= +0
-2 x10b7 +1 x10be +1 x10c2 <= +0
-3 x10dd +1 x10df +1 x10e3 +1 x10e7 -3 x1102 +1 x1104 <= +0
-2 x10df +1 x10e3 +1 x10e7 -2 x1104 <= +0
-2 x10dd +1 x10e3 +1 x10e7 -2 x1102 <= +0
-3 xc65 +1 xc76 +1 xc94 +1 xcb9 +1 xcba +1 xccb +1 xcce <= +0
-2 xc76 -2 xc94 +1 xcb9 +1 xcba +1 xccb +1 xcce <= +0
-2 xc65 +1 xcb9 +1 xcba +1 xccb +1 xcce <= +0
-3 xce3 +1 xcea +1 xd08 +1 xd2d +1 xd2e +1 xd3f +1 xd42 <= +0
-2 xcea -2 xd08 +1 xd2d +1 xd2e +1 xd3f +1 xd42 <= +0
-2 xce3 +1 xd2d +1 xd2e +1 xd3f +1 xd42 <= +0
-3 x101e +1 x1025 +1 x1030 -3 xd57 +1 xd5e +1 xd7c +1 xda1 +1 xda2
+1 xdb3 +1 xdb6 -3 xdcb +1 xdd3 +1 xdde <= +0
-2 x1025 -2 x1030 -2 xd5e -2 xd7c +1 xda1 +1 xda2 +1 xdb3 +1 xdb6
-2 xdd3 -2 xdde <= +0
-2 x101e -2 xd57 +1 xda1 +1 xda2 +1 xdb3 +1 xdb6 -2 xdcb <= +0
-3 x1045 +1 x104c +1 x1057 -3 x107e +1 x1085 +1 x1090 -3 xdff +1 xe06
+1 xe24 +1 xe49 +1 xe4a +1 xe5b +1 xe5e <= +0
-2 x104c -2 x1057 -2 x1085 -2 x1090 -2 xe06 -2 xe24 +1 xe49 +1 xe4a
+1 xe5b +1 xe5e <= +0
-2 x1045 -2 x107e -2 xdff +1 xe49 +1 xe4a +1 xe5b +1 xe5e <= +0
-3 x1126 +1 x112d +1 x1138 -3 xe73 +1 xe7a +1 xe98 +1 xebd +1 xebe
+1 xecf +1 xed2 -3 xfae +1 xfb5 +1 xfc0 <= +0
-2 x112d -2 x1138 -2 xe7a -2 xe98 +1 xebd +1 xebe +1 xecf +1 xed2
-2 xfb5 -2 xfc0 <= +0
-2 x1126 -2 xe73 +1 xebd +1 xebe +1 xecf +1 xed2 -2 xfae <= +0
-3 xef8 +1 xeff +1 xf1d +1 xf42 +1 xf43 +1 xf54 +1 xf57 -3 xf71
+1 xf79 +1 xf84 -3 xfdb +1 xfe2 +1 xfed <= +0
-2 xeff -2 xf1d +1 xf42 +1 xf43 +1 xf54 +1 xf57 -2 xf79 -2 xf84
-2 xfe2 -2 xfed <= +0
-2 xef8 +1 xf42 +1 xf43 +1 xf54 +1 xf57 -2 xf71 -2 xfdb <= +0
-3 x10af +1 x10b6 +1 x10d4 +1 x10f9 +1 x10fa +1 x110b +1 x110e <= +0
-2 x10b6 -2 x10d4 +1 x10f9 +1 x10fa +1 x110b +1 x110e <= +0
-2 x10af +1 x10f9 +1 x10fa +1 x110b +1 x110e <= +0
-98 xc55 +1 xc5c +1 xc60 >= +0
-98 xc55 +1 xc5c +1 xc60 <= +0
-98 xc55 +1 xc5c +1 xc60 <= +0
-98 xc55 +1 xc5c +1 xc60 <= +0
general
z
o
xc55
xc5c
xc5d
xc65
xc66
xc5f
xc60
xc61
xc76
xc77
xc7a
xc7b
xc7e
xc7f
xc87
xc88
xc81
xc82
xc83
xc90
xc91
xc92
xc93
xcd7
xc94
xc99
xc9a
xc9b
xc9c
xcba
xc9d
xc9f
xca0
xca2
xca3
xca4
xcac
xcad
xca6
xca7
xca8
xcb5
xcb6
xcb7
xcb8
xcd2
xcd3
xcb9
xcbc
xcbd
xcbe
xcbf
xcc0
xcc1
xcce
xcc2
xcc4
xcc5
xcca
xccb
xcdd
xce2
xce3
xcea
xceb
xcee
xcef
xcf2
xcf3
xcfb
xcfc
xcf5
xcf6
xcf7
xd04
xd05
xd06
xd07
xd4b
xd08
xd0d
xd0e
xd0f
xd10
xd2e
xd11
xd13
xd14
xd16
xd17
xd18
xd20
xd21
xd1a
xd1b
xd1c
xd29
xd2a
xd2b
xd2c
xd46
xd47
xd2d
xd30
xd31
xd32
xd33
xd34
xd35
xd42
xd36
xd38
xd39
xd3e
xd3f
xd51
xd56
xd57
xdec
xded
xdee
xd5e
xd5f
xd62
xd63
xd65
xd66
xd67
xd6f
xd70
xd69
xd6a
xd6b
xd78
xd79
xd7a
xd7b
xdbf
xd7c
xd7f
xd80
xd81
xd82
xd83
xd84
xda2
xd85
xd87
xd88
xd8a
xd8b
xd8c
xd94
xd95
xd8e
xd8f
xd90
xd9d
xd9e
xd9f
xda0
xdba
xdbb
xda1
xda4
xda5
xda6
xda7
xda8
xda9
xdb6
xdaa
xdac
xdad
xdb2
xdb3
xdc5
xdc9
xdca
xdcb
xdd3
xdd4
xdd7
xdd8
xddd
xdde
xdf1
xdf3
xdf5
xdfe
xdff
x1004
x1005
x1006
xe06
xe07
xe0a
xe0b
xe0d
xe0e
xe0f
xe17
xe18
xe11
xe12
xe13
xe20
xe21
xe22
xe23
xe67
xe24
xe27
xe28
xe29
xe2a
xe2b
xe2c
xe4a
xe2d
xe2f
xe30
xe32
xe33
xe34
xe3c
xe3d
xe36
xe37
xe38
xe45
xe46
xe47
xe48
xe62
xe63
xe49
xe4c
xe4d
xe4e
xe4f
xe50
xe51
xe5e
xe52
xe54
xe55
xe5a
xe5b
xe6d
xe71
xe72
xe73
xee5
xee6
xee7
xe7a
xe7b
xe7e
xe7f
xe81
xe82
xe83
xe8b
xe8c
xe85
xe86
xe87
xe94
xe95
xe96
xe97
xedb
xe98
xe9b
xe9c
xe9d
xe9e
xe9f
xea0
xebe
xea1
xea3
xea4
xea6
xea7
xea8
xeb0
xeb1
xeaa
xeab
xeac
xeb9
xeba
xebb
xebc
xed6
xed7
xebd
xec0
xec1
xec2
xec3
xec4
xec5
xed2
xec6
xec8
xec9
xece
xecf
xee1
x101c
xeea
xeec
xeee
xef7
xef8
xf92
xf93
xf94
xeff
xf00
xf03
xf04
xf06
xf07
xf08
xf10
xf11
xf0a
xf0b
xf0c
xf19
xf1a
xf1b
xf1c
xf60
xf1d
xf20
xf21
xf22
xf23
xf24
xf25
xf43
xf26
xf28
xf29
xf2b
xf2c
xf2d
xf35
xf36
xf2f
xf30
xf31
xf3e
xf3f
xf40
xf41
xf5b
xf5c
xf42
xf45
xf46
xf47
xf48
xf49
xf4a
xf57
xf4b
xf4d
xf4e
xf53
xf54
xf66
xfac
xf70
xf71
xf79
xf7a
xf7d
xf7e
xf83
xf84
xf97
xf99
xf9b
x114c
xfa6
xfa7
xfa8
xfad
xfae
xfce
xfcf
xfd0
xfb5
xfb6
xfb9
xfba
xfbf
xfc0
xfda
xfdb
xffa
xffb
xffc
xfe2
xfe3
xfe6
xfe7
xfec
xfed
x1007
x1008
x1009
x100c
x100e
x1010
x1016
x1017
x1018
x101d
x101e
x106e
x106f
x1070
x1025
x1026
x1029
x102a
x102f
x1030
x1044
x1045
x1065
x1066
x1067
x104c
x104d
x1050
x1051
x1056
x1057
x1071
x1072
x1073
x1074
x1075
x1076
x107d
x107e
x109e
x109f
x10a0
x1085
x1086
x1089
x108a
x108f
x1090
x10a9
x10ae
x10af
x10b6
x10b7
x10ba
x10bb
x10be
x10bf
x10c7
x10c8
x10c1
x10c2
x10c3
x10d0
x10d1
x10d2
x10d3
x1117
x10d4
x10d9
x10da
x10db
x10dc
x10fa
x10dd
x10df
x10e0
x10e2
x10e3
x10e4
x10ec
x10ed
x10e6
x10e7
x10e8
x10f5
x10f6
x10f7
x10f8
x1112
x1113
x10f9
x10fc
x10fd
x10fe
x10ff
x1100
x1101
x110e
x1102
x1104
x1105
x110a
x110b
x111d
x1125
x1126
x1145
x1146
x1147
x112d
x112e
x1131
x1132
x1137
x1138
end
